% File represents an instance of a Composite Structure problem to be solved by a CP framework
% Created on 2025-03-26 10:41:19.739
T = 50;
n = 9;
m = 12;
edges = [(1, 2),
(4, 5),
(7, 8),
(3, 2),
(6, 5),
(9, 8),
(1, 4),
(7, 4),
(2, 5),
(8, 5),
(3, 6),
(9, 6)];
counts = [|12, 6, 12, 20,
|10, 6, 10, 18,
|10, 6, 10, 20,
|10, 4, 10, 20,
|10, 2, 10, 16,
|10, 2, 10, 20,
|10, 4, 10, 22,
|10, 4, 10, 18,
|10, 6, 10, 22|];
